c ---- [ banner ] ------------------------------------------------------------
c
c Kissat SAT Solver
c 
c Copyright (c) 2021-2024 Armin Biere University of Freiburg
c Copyright (c) 2019-2021 Armin Biere Johannes Kepler University Linz
c 
c Version 4.0.1 43f02cf3e992cb44653b35e5cb26f93281552ae0
c gcc (Ubuntu 13.2.0-23ubuntu4) 13.2.0 -W -Wall -O3 -DNDEBUG
c Thu Sep 12 12:27:46 CEST 2024 Linux abryzen9 6.8.0-41-generic x86_64
c
c ---- [ parsing ] -----------------------------------------------------------
c
c opened and reading DIMACS file:
c
c   /data/artifact/AMulet2.0_artifact/exp4/cnf_dc2_64/64_64_U1_WT_BK_Multgen_dc2.cnf
c
c parsed 'p cnf 30895 134326' header
c closing input after reading 2681392 bytes (3 MB)
c finished parsing after 0.02 seconds
c
c ---- [ options ] -----------------------------------------------------------
c
c --stable=0                       (different from default '1')
c
c ---- [ solving ] -----------------------------------------------------------
c
c  seconds switched rate     size/glue tier1  binary           remaining
c         MB reductions conflicts size  tier2     irredundant
c          level restarts redundant glue  trail           variables
c
c *  0.02 10 0 0 0  0 0   0   0 0.0 0 0 0 0 0% 12960 121364 30892 100%
c (  0.03 13 0 0 0  0 0   0   0 0.0 0 0 0 0 0% 12960 121364 30892 100%
c .  0.04 13 0 0 0  0 0   0   0 0.0 0 0 0 0 0% 12956 121364 30892 100%
c c  0.10 19 0 0 0  0 0   0   0 0.0 0 0 0 0 0% 19869 107735 27435 89%
c d  0.10 19 0 0 0  0 0   0   0 0.0 0 0 0 0 0% 12955 107735 27435 89%
c =  0.14 19 0 0 0  0 0   0   0 0.0 0 0 0 0 0% 13297 107735 27199 88%
c d  0.14 19 0 0 0  0 0   0   0 0.0 0 0 0 0 0% 12825 107735 27199 88%
c f  0.21 19 0 0 0  0 0   0   0 0.0 0 0 0 0 0% 17681 100104 29928 97%
c e  0.33 27 0 0 0  0 0   0   0 0.0 0 0 0 0 0% 11300 108251 20795 67%
c )  0.33 27 0 0 0  0 0   0   0 0.0 0 0 0 0 0% 11300 108251 20795 67%
c {  0.34 27 0 0 0  0 0   0   0 0.0 0 0 2 6 0% 11300 108251 20795 67%
c -  0.44 29 255 0 1 264 43 1000 682 4.4 21 5 3 10 18% 11421 108243 20795 67%
c -  0.55 29 372 0 2 373 44 2000 1388 4.4 21 5 2 8 21% 11485 108234 20795 67%
c c  0.59 25 469 0 2 373 38 2506 1768 4.1 18 4 2 8 20% 11629 107871 20746 67%
c d  0.59 25 469 0 2 373 38 2506 1762 4.1 18 4 2 8 20% 11531 107871 20746 67%
c u  0.60 25 469 0 2 373 38 2506 1489 4.1 18 4 2 8 20% 11548 107871 20746 67%
c v  0.61 25 469 0 2 373 38 2506 1174 4.1 18 4 2 8 20% 11548 107871 20746 67%
c w  0.62 25 469 0 2 373 38 2506 1158 4.1 18 4 2 8 20% 11548 107871 20746 67%
c x  0.62 25 469 0 2 373 38 2506 1155 4.1 18 4 2 8 20% 11642 107657 20746 67%
c =  0.66 25 469 0 2 373 38 2506 1155 4.1 18 4 2 8 20% 12030 107657 20552 67%
c
c  seconds   switched   rate       size/glue tier1    binary           remaining
c         MB  reductions conflicts       size  tier2      irredundant
c           level restarts    redundant    glue   trail           variables
c
c d  0.67 25 469 0 2 373 38 2506 1152 4.1 18 4 2 8 20% 11639 107657 20552 67%
c t  0.67 25 469 0 2 373 38 2506 1152 4.1 18 4 2 8 20% 11629 107657 20552 67%
c f  0.68 25 469 0 2 373 38 2506 1152 4.1 18 4 2 8 20% 12197 106489 21136 68%
c u  0.73 25 469 0 2 373 38 2506 1118 4.1 18 4 2 8 20% 12204 106489 21136 68%
c v  0.74 25 469 0 2 373 38 2506 1078 4.1 18 4 2 8 20% 12204 106489 21136 68%
c w  0.74 25 469 0 2 373 38 2506 1072 4.1 18 4 2 8 20% 12204 106489 21136 68%
c x  0.75 25 469 0 2 373 38 2506 1072 4.1 18 4 2 8 20% 12204 105883 21136 68%
c =  0.79 25 469 0 2 373 38 2506 1072 4.1 18 4 2 8 20% 12382 105883 21047 68%
c d  0.80 25 469 0 2 373 38 2506 1072 4.1 18 4 2 8 20% 12204 105883 21047 68%
c f  0.82 25 469 0 2 373 38 2506 1072 4.1 18 4 2 8 20% 12212 105865 21053 68%
c -  1.04 25 446 0 3 588 41 3414 1663 4.3 23 5 2 8 21% 12246 105864 21053 68%
c -  1.31 26 455 0 4 849 40 5146 2822 3.9 22 6 2 9 23% 12297 105863 21053 68%
c -  1.60 26 429 0 5 1039 41 7146 4062 3.9 22 6 2 8 22% 12374 105840 21053 68%
c d  1.67 26 423 0 5 1071 39 7711 4467 3.8 22 6 2 8 22% 12360 105840 21030 68%
c u  1.70 26 423 0 5 1071 39 7711 3940 3.8 22 6 2 8 22% 12375 105840 21030 68%
c v  1.72 26 423 0 5 1071 39 7711 3436 3.8 22 6 2 8 22% 12375 105840 21030 68%
c w  1.74 26 423 0 5 1071 39 7711 3423 3.8 22 6 2 8 22% 12375 105840 21030 68%
c x  1.77 26 423 0 5 1071 39 7711 3423 3.8 22 6 2 8 22% 12377 105798 21030 68%
c =  1.87 26 423 0 5 1071 39 7711 3423 3.8 22 6 2 8 22% 12911 105798 20763 67%
c d  1.87 26 423 0 5 1071 39 7711 3412 3.8 22 6 2 8 22% 12327 105798 20763 67%
c
c  seconds   switched    rate       size/glue tier1    binary           remaining
c         MB  reductions  conflicts       size  tier2      irredundant
c           level  restarts    redundant    glue   trail           variables
c
c t  1.89 26 423 0 5 1071 39 7711 3412 3.8 22 6 2 8 22% 12319 105798 20763 67%
c f  1.92 26 423 0 5 1071 39 7711 3412 3.8 22 6 2 8 22% 12527 105466 20869 68%
c u  1.98 26 423 0 5 1071 39 7711 3324 3.8 22 6 2 8 22% 12529 105466 20869 68%
c v  2.00 26 423 0 5 1071 39 7711 3253 3.8 22 6 2 8 22% 12529 105466 20869 68%
c w  2.02 26 423 0 5 1071 39 7711 3245 3.8 22 6 2 8 22% 12529 105466 20869 68%
c =  2.11 26 423 0 5 1071 39 7711 3245 3.8 22 6 2 8 22% 13437 105466 20415 66%
c d  2.12 26 423 0 5 1071 39 7711 3234 3.8 22 6 2 8 22% 12394 105466 20415 66%
c t  2.13 26 423 0 5 1071 39 7711 3234 3.8 22 6 2 8 22% 12341 105466 20415 66%
c f  2.16 26 423 0 5 1071 39 7711 3234 3.8 22 6 2 8 22% 14656 101993 21573 70%
c -  2.69 26 387 0 6 1330 40 9382 4171 4.0 25 6 2 8 25% 14685 101993 21573 70%
c o  2.81 26 413 0 6 1386 41 10094 4784 4.1 25 6 2 8 25% 14716 101993 21573 70%
c -  3.13 28 408 0 7 1573 40 11831 5477 4.2 27 6 2 8 24% 14802 101990 21573 70%
c s  3.26 28 404 0 7 1622 39 12514 6067 4.2 27 6 2 8 24% 14830 96687 21573 70%
c e  3.34 28 404 0 7 1622 39 12514 6067 4.2 27 6 2 8 24% 13644 97635 20883 68%
c s  3.35 28 404 0 7 1622 39 12514 6067 4.2 27 6 2 8 24% 13650 97028 20883 68%
c e  3.36 28 404 0 7 1622 39 12514 6067 4.2 27 6 2 8 24% 13646 97032 20882 68%
c ^  3.36 28 404 0 7 1622 39 12514 6067 4.2 27 6 2 8 24% 13646 97032 20882 68%
c -  3.64 28 397 0 8 1760 38 14476 6327 4.3 28 6 2 8 24% 13724 97030 20882 68%
c d  3.94 28 390 0 8 1950 38 15794 7474 4.3 28 7 2 8 25% 13352 97027 20644 67%
c u  3.97 28 390 0 8 1950 38 15794 6549 4.3 28 7 2 8 25% 13368 97027 20644 67%
c
c  seconds   switched    rate        size/glue tier1    binary          remaining
c         MB  reductions   conflicts       size  tier2      irredundant
c           level  restarts     redundant    glue   trail          variables
c
c v  4.00 28 390 0 8 1950 38 15794 5726 4.3 28 7 2 8 25% 13370 97027 20644 67%
c w  4.07 28 390 0 8 1950 38 15794 5723 4.3 28 7 2 8 25% 13370 97027 20644 67%
c x  4.10 28 390 0 8 1950 38 15794 5723 4.3 28 7 2 8 25% 13409 96776 20644 67%
c =  4.26 28 390 0 8 1950 38 15794 5723 4.3 28 7 2 8 25% 14241 96770 20228 65%
c d  4.26 28 390 0 8 1950 38 15794 5652 4.3 28 7 2 8 25% 13172 96770 20224 65%
c t  4.28 28 390 0 8 1950 38 15794 5652 4.3 28 7 2 8 25% 13116 96770 20224 65%
c f  4.33 28 390 0 8 1950 38 15794 5652 4.3 28 7 2 8 25% 13234 96515 20289 66%
c u  4.37 28 390 0 8 1950 38 15794 5456 4.3 28 7 2 8 25% 13241 96515 20289 66%
c v  4.39 28 390 0 8 1950 38 15794 5328 4.3 28 7 2 8 25% 13241 96515 20289 66%
c w  4.46 28 390 0 8 1950 38 15794 5290 4.3 28 7 2 8 25% 13241 96515 20289 66%
c x  4.49 28 390 0 8 1950 38 15794 5290 4.3 28 7 2 8 25% 13313 94972 20289 66%
c =  4.67 28 390 0 8 1950 38 15794 5290 4.3 28 7 2 8 25% 14737 94972 19577 63%
c d  4.68 28 390 0 8 1950 38 15794 5217 4.3 28 7 2 8 25% 12777 94972 19577 63%
c t  4.69 28 390 0 8 1950 38 15794 5217 4.3 28 7 2 8 25% 12765 94972 19577 63%
c f  4.71 28 390 0 8 1950 38 15794 5217 4.3 28 7 2 8 25% 12771 94958 19580 63%
c -  5.14 28 380 0 9 2214 38 17306 5705 4.3 30 7 2 8 26% 12826 94958 19580 63%
c o  5.52 28 397 0 9 2395 37 20143 8168 4.3 30 7 2 8 26% 12901 94957 19580 63%
c -  5.60 28 395 0 10 2440 38 20307 7418 4.4 31 7 2 8 26% 12903 94957 19580 63%
c -  5.90 28 392 0 11 2611 36 23469 9049 4.3 29 7 2 7 25% 12991 94956 19580 63%
c s  6.08 28 398 0 11 2691 35 25018 10395 4.3 29 7 2 7 25% 13055 92259 19580 63%
c
c  seconds   switched     rate         size/glue tier1    binary          remaining
c         MB   reductions   conflicts        size  tier2      irredundant
c           level   restarts      redundant    glue   trail          variables
c
c e  6.17 28 398 0 11 2691 35 25018 10395 4.3 29 7 2 7 25% 10786 95370 18313 59%
c s  6.17 28 398 0 11 2691 35 25018 10395 4.3 29 7 2 7 25% 10814 94975 18313 59%
c e  6.18 28 398 0 11 2691 35 25018 10395 4.3 29 7 2 7 25% 10786 95012 18299 59%
c ^  6.18 28 398 0 11 2691 35 25018 10395 4.3 29 7 2 7 25% 10786 95012 18299 59%
c -  6.40 28 396 0 12 2819 34 26785 9798 4.3 29 7 2 7 25% 10821 95012 18299 59%
c c  6.47 28 394 0 12 2831 34 26922 9923 4.3 29 7 2 7 25% 10858 94856 18276 59%
c d  6.47 28 394 0 12 2831 34 26922 9885 4.3 29 7 2 7 25% 10574 94856 18133 59%
c u  6.50 28 394 0 12 2831 34 26922 8428 4.3 29 7 2 7 25% 10587 94856 18133 59%
c v  6.53 28 394 0 12 2831 34 26922 7545 4.3 29 7 2 7 25% 10589 94856 18133 59%
c w  6.55 28 394 0 12 2831 34 26922 7540 4.3 29 7 2 7 25% 10589 94856 18133 59%
c x  6.60 28 394 0 12 2831 34 26922 7538 4.3 29 7 2 7 25% 10639 93987 18133 59%
c =  6.78 28 394 0 12 2831 34 26922 7538 4.3 29 7 2 7 25% 13945 93987 16480 53%
c d  6.78 28 394 0 12 2831 34 26922 7364 4.3 29 7 2 7 25% 10581 93987 16478 53%
c t  6.80 28 394 0 12 2831 34 26922 7364 4.3 29 7 2 7 25% 10494 93987 16478 53%
c f  6.84 28 394 0 12 2831 34 26922 7364 4.3 29 7 2 7 25% 10491 93888 16499 53%
c u  6.87 28 394 0 12 2831 34 26922 6918 4.3 29 7 2 7 25% 10495 93888 16499 53%
c v  6.90 28 394 0 12 2831 34 26922 6798 4.3 29 7 2 7 25% 10495 93888 16499 53%
c w  6.91 28 394 0 12 2831 34 26922 6793 4.3 29 7 2 7 25% 10495 93888 16499 53%
c x  6.97 28 394 0 12 2831 34 26922 6793 4.3 29 7 2 7 25% 10499 86951 16499 53%
c =  7.15 28 394 0 12 2831 34 26922 6793 4.3 29 7 2 7 25% 12251 86951 15623 51%
c
c  seconds   switched     rate        size/glue tier1    binary          remaining
c         MB   reductions   conflicts       size  tier2      irredundant
c           level   restarts     redundant    glue   trail          variables
c
c d  7.15 28 394 0 12 2831 34 26922 6741 4.3 29 7 2 7 25% 10450 86951 15623 51%
c t  7.17 28 394 0 12 2831 34 26922 6741 4.3 29 7 2 7 25% 10383 86951 15623 51%
c f  7.19 28 394 0 12 2831 34 26922 6741 4.3 29 7 2 7 25% 10391 86907 15634 51%
c -  7.64 28 375 0 13 3161 34 30250 8694 4.2 29 7 2 7 25% 10440 86905 15634 51%
c -  8.11 28 364 0 14 3469 33 33855 10743 4.2 29 7 2 7 25% 10514 86903 15634 51%
c -  8.42 28 343 0 15 3651 31 37596 12469 4.1 28 7 2 7 24% 10594 86902 15634 51%
c o  8.70 28 345 0 15 3846 31 40161 14623 4.1 28 7 2 7 24% 10651 86901 15634 51%
c c  8.94 28 340 0 15 4000 31 41248 15591 4.1 28 7 2 7 24% 10775 86266 15529 50%
c d  8.94 28 340 0 15 4000 31 41248 15351 4.1 28 7 2 7 24% 10565 86266 15529 50%
c u  8.98 28 340 0 15 4000 31 41248 12765 4.1 28 7 2 7 24% 10610 86266 15529 50%
c v  9.03 28 340 0 15 4000 31 41248 11620 4.1 28 7 2 7 24% 10614 86266 15529 50%
c w  9.06 28 340 0 15 4000 31 41248 11620 4.1 28 7 2 7 24% 10614 86266 15529 50%
c x  9.11 28 340 0 15 4000 31 41248 11620 4.1 28 7 2 7 24% 10616 80211 15529 50%
c d  9.26 28 340 0 15 4000 31 41248 11616 4.1 28 7 2 7 24% 10606 80211 15524 50%
c t  9.27 28 340 0 15 4000 31 41248 11616 4.1 28 7 2 7 24% 10586 80211 15524 50%
c f  9.28 28 340 0 15 4000 31 41248 11616 4.1 28 7 2 7 24% 10583 80211 15525 50%
c c  9.32 28 340 0 15 4000 31 41248 11616 4.1 28 7 2 7 24% 10600 80153 15516 50%
c d  9.33 28 340 0 15 4000 31 41248 11610 4.1 28 7 2 7 24% 10582 80153 15516 50%
c u  9.36 28 340 0 15 4000 31 41248 11098 4.1 28 7 2 7 24% 10582 80153 15516 50%
c v  9.39 28 340 0 15 4000 31 41248 10593 4.1 28 7 2 7 24% 10583 80153 15516 50%
c
c  seconds   switched     rate         size/glue tier1    binary          remaining
c         MB   reductions   conflicts        size  tier2      irredundant
c           level   restarts      redundant    glue   trail          variables
c
c w  9.46 28 340 0 15 4000 31 41248 10587 4.1 28 7 2 7 24% 10583 80153 15516 50%
c x  9.50 28 340 0 15 4000 31 41248 10587 4.1 28 7 2 7 24% 10587 78942 15516 50%
c d  9.51 28 340 0 15 4000 31 41248 10585 4.1 28 7 2 7 24% 10585 78942 15515 50%
c t  9.52 28 340 0 15 4000 31 41248 10585 4.1 28 7 2 7 24% 10581 78942 15515 50%
c -  9.55 28 340 0 16 4016 31 41470 9594 4.1 28 7 2 6 24% 10592 78942 15515 50%
c -  9.98 28 328 0 17 4300 30 45470 11769 4.0 27 7 2 6 24% 10667 78941 15515 50%
c - 10.43 28 324 0 18 4631 30 49593 13907 4.0 27 7 2 6 24% 10762 78941 15515 50%
c s 10.72 28 319 0 18 4852 30 52121 16099 3.9 27 7 2 6 24% 10818 76447 15515 50%
c e 10.78 28 319 0 18 4852 30 52121 16099 3.9 27 7 2 6 24% 10040 77540 15114 49%
c 2 10.78 28 319 0 18 4852 30 52121 16099 3.9 27 7 2 6 24% 10039 77540 15114 49%
c s 10.79 28 319 0 18 4852 30 52121 16099 3.9 27 7 2 6 24% 10050 77115 15114 49%
c e 10.79 28 319 0 18 4852 30 52121 16099 3.9 27 7 2 6 24% 10039 77129 15109 49%
c ^ 10.80 28 319 0 18 4852 30 52121 16099 3.9 27 7 2 6 24% 10039 77129 15109 49%
c - 10.99 28 316 0 19 4979 30 53835 14577 3.9 27 7 2 6 24% 10095 77127 15109 49%
c - 11.51 28 305 0 20 5417 29 58193 14447 3.9 27 7 1 6 24% 10153 77127 15109 49%
c d 11.69 28 303 0 20 5547 30 58882 15036 3.9 27 7 1 6 24% 10105 77127 15081 49%
c u 11.73 28 303 0 20 5547 30 58882 13453 3.9 27 7 1 6 24% 10132 77127 15081 49%
c v 11.78 28 303 0 20 5547 30 58882 11298 3.9 27 7 1 6 24% 10151 77127 15081 49%
c w 11.85 28 303 0 20 5547 30 58882 11295 3.9 27 7 1 6 24% 10151 77127 15081 49%
c x 11.90 28 303 0 20 5547 30 58882 11293 3.9 27 7 1 6 24% 10165 76268 15081 49%
c
c  seconds   switched     rate         size/glue tier1    binary          remaining
c         MB   reductions   conflicts        size  tier2      irredundant
c           level   restarts      redundant    glue   trail          variables
c
c = 12.10 28 303 0 20 5547 30 58882 11293 3.9 27 7 1 6 24% 10415 76268 14956 48%
c d 12.11 28 303 0 20 5547 30 58882 11261 3.9 27 7 1 6 24% 10132 76268 14941 48%
c t 12.12 28 303 0 20 5547 30 58882 11261 3.9 27 7 1 6 24% 10094 76268 14941 48%
c f 12.14 28 303 0 20 5547 30 58882 11261 3.9 27 7 1 6 24% 10098 76236 14946 48%
c c 12.18 28 303 0 20 5547 30 58882 11192 3.9 27 7 1 6 24% 10200 75860 14896 48%
c d 12.19 28 303 0 20 5547 30 58882 11192 3.9 27 7 1 6 24% 10100 75860 14896 48%
c u 12.21 28 303 0 20 5547 30 58882 10841 3.9 27 7 1 6 24% 10094 75860 14896 48%
c v 12.25 28 303 0 20 5547 30 58882 10364 3.9 27 7 1 6 24% 10102 75860 14896 48%
c w 12.31 28 303 0 20 5547 30 58882 10321 3.9 27 7 1 6 24% 10102 75860 14896 48%
c x 12.38 28 303 0 20 5547 30 58882 10320 3.9 27 7 1 6 24% 10121 74643 14896 48%
c = 12.60 28 303 0 20 5547 30 58882 10320 3.9 27 7 1 6 24% 10955 74643 14479 47%
c d 12.60 28 303 0 20 5547 30 58882 10227 3.9 27 7 1 6 24% 10080 74643 14476 47%
c t 12.61 28 303 0 20 5547 30 58882 10227 3.9 27 7 1 6 24% 10039 74643 14476 47%
c f 12.63 28 303 0 20 5547 30 58882 10227 3.9 27 7 1 6 24% 10042 74631 14477 47%
c - 12.93 28 296 0 21 5747 29 62667 11192 3.8 26 7 1 6 23% 10141 74630 14477 47%
c - 13.54 28 287 0 22 6235 29 67249 12918 3.8 26 7 1 6 24% 10238 74630 14477 47%
c o 13.82 28 281 0 22 6463 28 70168 15410 3.7 26 7 1 6 23% 10296 74629 14477 47%
c - 14.00 28 279 0 23 6603 28 71940 14200 3.7 26 7 1 6 23% 10342 74629 14477 47%
c - 14.48 28 276 0 24 6913 27 76736 15095 3.6 26 7 1 6 23% 10452 74629 14477 47%
c c 14.85 28 272 0 24 7160 27 79952 17806 3.6 25 7 1 6 23% 10660 73146 14196 46%
c
c  seconds   switched     rate         size/glue tier1    binary          remaining
c         MB   reductions   conflicts        size  tier2      irredundant
c           level   restarts      redundant    glue   trail          variables
c
c d 14.86 28 272 0 24 7160 27 79952 17066 3.6 25 7 1 6 23% 10098 73146 14196 46%
c u 14.89 28 272 0 24 7160 27 79952 15080 3.6 25 7 1 6 23% 10122 73146 14196 46%
c v 14.94 28 272 0 24 7160 27 79952 12581 3.6 25 7 1 6 23% 10152 73146 14196 46%
c w 15.01 28 272 0 24 7160 27 79952 12570 3.6 25 7 1 6 23% 10152 73146 14196 46%
c x 15.06 28 272 0 24 7160 27 79952 12568 3.6 25 7 1 6 23% 10171 72163 14196 46%
c = 15.21 28 272 0 24 7160 27 79952 12568 3.6 25 7 1 6 23% 10665 72163 13949 45%
c d 15.21 28 272 0 24 7160 27 79952 12183 3.6 25 7 1 6 23% 10081 72163 13928 45%
c t 15.22 28 272 0 24 7160 27 79952 12183 3.6 25 7 1 6 23% 10008 72163 13928 45%
c f 15.24 28 272 0 24 7160 27 79952 12183 3.6 25 7 1 6 23% 10017 72079 13941 45%
c c 15.28 28 272 0 24 7160 27 79952 12127 3.6 25 7 1 6 23% 10035 72009 13932 45%
c d 15.28 28 272 0 24 7160 27 79952 12127 3.6 25 7 1 6 23% 10017 72009 13932 45%
c u 15.31 28 272 0 24 7160 27 79952 11581 3.6 25 7 1 6 23% 10027 72009 13932 45%
c v 15.34 28 272 0 24 7160 27 79952 10969 3.6 25 7 1 6 23% 10035 72009 13932 45%
c w 15.43 28 272 0 24 7160 27 79952 10878 3.6 25 7 1 6 23% 10035 72009 13932 45%
c x 15.47 28 272 0 24 7160 27 79952 10878 3.6 25 7 1 6 23% 10049 71084 13932 45%
c = 15.74 28 272 0 24 7160 27 79952 10878 3.6 25 7 1 6 23% 10739 71067 13587 44%
c d 15.74 28 272 0 24 7160 27 79952 10692 3.6 25 7 1 6 23% 9978 71067 13585 44%
c t 15.75 28 272 0 24 7160 27 79952 10692 3.6 25 7 1 6 23% 9907 71067 13585 44%
c f 15.77 28 272 0 24 7160 27 79952 10692 3.6 25 7 1 6 23% 9922 70958 13600 44%
c - 16.08 28 269 0 25 7398 27 81634 10301 3.6 26 7 1 6 23% 9940 70958 13600 44%
c
c  seconds   switched     rate         size/glue tier1    binary          remaining
c         MB   reductions   conflicts        size  tier2      irredundant
c           level   restarts      redundant    glue   trail          variables
c
c - 16.61 28 261 0 26 7836 27 86634 12631 3.6 25 7 1 6 23% 10038 70956 13600 44%
c i 16.93 28 256 0 26 8115 27 89803 15316 3.6 26 7 1 6 23% 10120 70954 13594 44%
c - 17.11 28 253 0 27 8246 26 91733 14303 3.6 25 7 1 5 23% 10136 70954 13594 44%
c s 17.75 28 248 0 27 8715 26 95798 18000 3.6 25 7 1 5 23% 10175 66799 13594 44%
c e 17.83 28 248 0 27 8715 26 95798 18000 3.6 25 7 1 5 23% 6543 75232 11808 38%
c 2 17.83 28 248 0 27 8715 26 95798 18000 3.6 25 7 1 5 23% 6526 75232 11808 38%
c s 17.85 28 248 0 27 8715 26 95798 18000 3.6 25 7 1 5 23% 6545 74451 11808 38%
c e 17.86 28 248 0 27 8715 26 95798 18000 3.6 25 7 1 5 23% 6491 74600 11772 38%
c ^ 17.86 28 248 0 27 8715 26 95798 18000 3.6 25 7 1 5 23% 6491 74600 11772 38%
c - 17.99 28 247 0 28 8825 26 96929 11460 3.5 25 7 1 5 23% 6501 74599 11772 38%
c i 18.50 28 241 0 28 9236 26 100610 14796 3.5 26 7 1 5 24% 6538 74599 11771 38%
c - 18.58 28 239 0 29 9295 26 102224 13946 3.5 25 7 1 5 23% 6547 74599 11771 38%
c i 18.85 28 235 0 29 9535 26 104234 15762 3.5 25 7 1 5 24% 6569 74598 11770 38%
c d 18.90 28 235 0 29 9558 26 104591 15868 3.5 25 7 1 5 24% 6518 74580 11740 38%
c d 18.90 28 235 0 29 9558 26 104591 15865 3.5 25 7 1 5 24% 6512 74580 11737 38%
c u 18.93 28 235 0 29 9558 26 104591 14177 3.5 25 7 1 5 24% 6534 74580 11737 38%
c v 18.99 28 235 0 29 9558 26 104591 11925 3.5 25 7 1 5 24% 6542 74580 11737 38%
c w 19.11 28 235 0 29 9558 26 104591 11854 3.5 25 7 1 5 24% 6542 74580 11737 38%
c x 19.17 28 235 0 29 9558 26 104591 11853 3.5 25 7 1 5 24% 6542 74561 11737 38%
c = 19.34 28 235 0 29 9558 26 104591 11853 3.5 25 7 1 5 24% 7031 74112 11436 37%
c
c  seconds   switched     rate          size/glue tier1    binary         remaining
c         MB   reductions   conflicts         size  tier2     irredundant
c           level   restarts       redundant    glue   trail         variables
c
c } 19.34 28 235 0 29 9558 26 104591 11853 3.5 25 7 1 5 24% 7031 74112 11678 38%
c 0 19.34 28 235 0 29 9558 26 104591 11853 3.5 25 7 1 5 24% 7031 74112 11678 38%
c
c ---- [ result ] ------------------------------------------------------------
c
s UNSATISFIABLE
c
c ---- [ profiling ] ---------------------------------------------------------
c
c          13.24   68.48 %  search
c          13.24   68.48 %  focused
c           5.75   29.75 %  simplify
c           5.47   28.30 %  probe
c           2.13   11.04 %  sweep
c           2.10   10.88 %  vivify
c           0.45    2.35 %  eliminate
c           0.40    2.09 %  factor
c           0.40    2.05 %  congruence
c           0.31    1.61 %  substitute
c           0.30    1.54 %  preprocess
c           0.12    0.61 %  fastel
c           0.12    0.61 %  reduce
c           0.09    0.46 %  transitive
c           0.08    0.44 %  subsume
c           0.03    0.18 %  backbone
c           0.02    0.12 %  lucky
c           0.02    0.11 %  parse
c =============================================
c          19.34  100.00 %  total
c
c ---- [ statistics ] --------------------------------------------------------
c
c chronological:                         6022                6 %  conflicts
c conflicts:                           104591             5409.08 per second
c congruent:                             3983               13 %  variables
c decisions:                          2653707               25.37 per conflict
c eliminated:                           13333               43 %  variables
c factored:                              4718               15 %  variables
c fast_eliminated:                       9133               68 %  eliminated
c fast_strengthened:                       18                2 %  per strengthened
c fast_subsumed:                           83                0 %  per subsumed
c iterations:                               3                0 %  variables
c propagations:                      96503190          4990811    per second
c reductions:                              29             3607    interval
c reordered:                                4            26148    interval
c restarts:                              9558               11    interval
c strengthened:                          1070                0 %  checks
c substituted:                          10532               34 %  variables
c subsumed:                             16835                1 %  checks
c switched:                                 0                0    interval
c vivified:                             56525               12 %  checks
c
c ---- [ glue usage ] --------------------------------------------------------
c
c focused glue 1 used 134015 clauses 56.84% accumulated 56.84% tier1
c focused glue 2 used  48253 clauses 20.46% accumulated 77.30%
c focused glue 3 used  14661 clauses  6.22% accumulated 83.52%
c focused glue 4 used   9504 clauses  4.03% accumulated 87.55%
c focused glue 5 used   6687 clauses  2.84% accumulated 90.39% tier2
c
c ---- [ resources ] ---------------------------------------------------------
c
c maximum-resident-set-size:         29962240 bytes         29 MB
c process-time:                            19s              19.34 seconds
c
c ---- [ shutting down ] -----------------------------------------------------
c
c exit 20
